TCS_Benchmarks/redos_fix/regexlib2_output_distinct_488_487_12_0.smt2
(set-logic QF_S)
(declare-const x String)
(assert (str.in.re x (re.inter  (re.++ (re.*  (str.to.re "\u{20}") ) (re.* (re.range "\u{30}" "\u{39}") ))  (re.++ (re.*  (str.to.re "\u{20}") ) (re.++  (re.++  (re.union (str.to_re "")  (re.++  (str.to.re "\u{a3}")  (str.to_re ""))) (re.*  (str.to.re "\u{20}") )) (re.* (re.range "\u{30}" "\u{39}") ))) )))
(check-sat)
(get-model)