TCS_Benchmarks/redos_fix/regexlib2_output_distinct_488_487_12_0.txt
(( )*)(\d*)
(( )*)(\£{0,1}( )*)(\d*)